#---Fixing cores--------------------------------------------#

neigh_modify exclude molecule/inter all

pair_style  lj/expand 3
pair_coeff 1 1 ${epsilon} ${sigma} ${Delta_cc}
pair_coeff 1 2 0.0 0.0 0.0
pair_coeff 1 3 ${epsilon} ${sigma} ${Delta_cm}
pair_coeff 2 2 0.0 0.0 0.0
pair_coeff 2 3 0.0 0.0 0.0
pair_coeff 3 3 ${epsilon} ${sigma} 0
pair_modify shift yes

unfix 5
fix 5 all enforce2d

timestep ${dt}
run 10000

neigh_modify exclude none

pair_style  lj/expand 1.12246152962189
pair_coeff 1 1 ${epsilon} ${sigma} ${Delta_cc}
pair_coeff 1 2 0.0 0.0 0.0
pair_coeff 1 3 ${epsilon} ${sigma} ${Delta_cm}
pair_coeff 2 2 0.0 0.0 0.0
pair_coeff 2 3 0.0 0.0 0.0
pair_coeff 3 3 ${epsilon} ${sigma} 0
pair_modify shift yes

unfix 5
fix 5 all enforce2d

reset_timestep 0
